8 13 4 2 15 5 9 12 0 11 10 3 14 7 16 6 1 
0 15 12 5 1 9 3 8 10 16 14 13 6 7 11 2 4 
13 15 7 12 6 3 0 8 5 4 1 16 14 11 2 10 9 
1 4 10 8 6 3 2 9 14 12 11 16 0 13 5 15 7 
7 12 2 15 6 10 1 14 0 8 5 13 11 4 3 9 16 
12 6 9 4 16 10 1 5 11 8 15 2 7 14 13 3 0 
14 12 6 8 15 4 16 10 0 13 9 5 11 1 7 2 3 
16 3 10 6 9 15 1 13 5 12 7 0 2 11 4 14 8 
3 11 5 16 1 15 10 14 8 0 9 6 7 4 12 13 2 
14 1 2 3 9 4 16 15 7 6 5 13 12 8 10 0 11 
